c "53491.clq"
p edge 80 304
e 1 5
e 1 6
e 1 7
e 1 8
e 1 9
e 1 10
e 1 14
e 1 15
e 1 21
e 1 28
e 1 30
e 1 39
e 1 42
e 1 43
e 1 46
e 1 53
e 1 64
e 1 66
e 1 75
e 2 5
e 2 19
e 3 5
e 3 6
e 3 8
e 3 11
e 3 12
e 3 14
e 3 17
e 3 19
e 3 21
e 3 23
e 3 24
e 3 25
e 3 26
e 3 27
e 3 31
e 3 32
e 3 34
e 3 37
e 3 40
e 3 45
e 3 56
e 3 57
e 3 69
e 3 70
e 3 72
e 3 76
e 4 5
e 4 6
e 4 7
e 4 33
e 4 46
e 4 52
e 5 6
e 5 7
e 5 10
e 5 11
e 5 13
e 5 14
e 5 15
e 5 16
e 5 25
e 5 27
e 5 31
e 5 35
e 5 37
e 5 40
e 5 45
e 5 63
e 5 67
e 6 7
e 6 8
e 6 9
e 6 10
e 6 13
e 6 20
e 6 24
e 6 26
e 6 30
e 6 36
e 6 45
e 6 59
e 6 61
e 6 74
e 7 8
e 7 9
e 7 10
e 7 11
e 7 12
e 7 13
e 7 14
e 7 15
e 7 16
e 7 17
e 7 18
e 7 20
e 7 22
e 7 23
e 7 24
e 7 25
e 7 26
e 7 31
e 7 36
e 7 37
e 7 40
e 7 41
e 7 49
e 7 55
e 7 56
e 7 61
e 7 73
e 7 74
e 7 80
e 8 9
e 8 11
e 8 17
e 8 20
e 8 35
e 8 42
e 8 48
e 8 50
e 8 53
e 8 60
e 8 64
e 8 72
e 8 75
e 9 12
e 9 13
e 9 18
e 9 19
e 9 22
e 9 24
e 9 29
e 9 32
e 9 35
e 9 39
e 9 43
e 9 44
e 9 52
e 9 56
e 9 59
e 9 62
e 10 12
e 10 27
e 10 29
e 10 49
e 10 62
e 10 71
e 10 78
e 11 17
e 11 19
e 11 22
e 11 23
e 11 29
e 11 33
e 11 36
e 11 47
e 11 57
e 11 59
e 11 70
e 11 72
e 12 18
e 13 54
e 13 58
e 13 67
e 14 15
e 14 16
e 14 21
e 14 22
e 14 25
e 14 26
e 14 32
e 14 38
e 14 53
e 14 62
e 14 66
e 14 68
e 14 73
e 15 16
e 15 20
e 15 27
e 15 28
e 15 33
e 15 47
e 15 50
e 15 57
e 15 63
e 15 66
e 15 67
e 15 78
e 16 18
e 16 21
e 16 36
e 16 51
e 16 54
e 16 61
e 16 78
e 17 41
e 17 58
e 18 47
e 18 69
e 18 77
e 19 39
e 19 41
e 19 44
e 19 45
e 19 49
e 19 65
e 19 68
e 19 74
e 20 75
e 20 76
e 21 23
e 21 28
e 21 54
e 21 77
e 21 80
e 22 32
e 22 34
e 22 35
e 22 38
e 22 47
e 22 48
e 22 50
e 22 54
e 22 68
e 22 70
e 24 30
e 24 31
e 24 60
e 24 79
e 25 38
e 25 55
e 25 57
e 25 69
e 26 28
e 26 33
e 27 48
e 27 77
e 28 29
e 28 30
e 28 34
e 28 46
e 28 60
e 29 34
e 29 38
e 29 59
e 29 77
e 30 42
e 30 44
e 30 49
e 30 71
e 31 48
e 31 50
e 31 52
e 31 58
e 32 37
e 33 39
e 34 43
e 34 73
e 35 43
e 36 40
e 37 51
e 37 60
e 38 41
e 38 56
e 38 63
e 38 76
e 39 46
e 39 64
e 39 66
e 40 73
e 41 42
e 41 44
e 41 51
e 41 53
e 41 55
e 45 58
e 45 76
e 46 51
e 47 61
e 47 62
e 47 64
e 47 71
e 48 55
e 48 63
e 48 65
e 48 69
e 48 70
e 48 80
e 49 52
e 50 72
e 54 65
e 55 68
e 55 74
e 57 80
e 59 79
e 60 75
e 63 65
e 64 67
e 65 71
e 71 79
e 73 78
e 76 79
